StudentsNr = 10;
InstructorsNr = 79;
DaysNr = 2;
SlotsPerDay = 10;
AvailabilitySlotsLenght = 2;
RoomNr = 2;
ProgrammNr = 1;
DegreeNr = 2;
RolesNr = 4;
CoursesNr = 8;
InstructorsProgramm = [{1}, {1}, {1}, {1}, {1}, {1}, {1}, {1}, {1}, {1}, {1}, {1}, {1}, {1}, {1}, {1}, {1}, {1}, {1}, {1}, {1}, {1}, {1}, {1}, {1}, {1}, {1}, {1}, {1}, {1}, {1}, {1}, {1}, {1}, {1}, {1}, {1}, {1}, {1}, {1}, {1}, {1}, {1}, {1}, {1}, {1}, {1}, {1}, {1}, {1}, {1}, {1}, {1}, {1}, {1}, {1}, {1}, {1}, {1}, {1}, {1}, {1}, {1}, {1}, {1}, {1}, {1}, {1}, {1}, {1}, {1}, {1}, {1}, {1}, {1}, {1}, {1}, {1}, {1}];
InstructorRolesPerProgramm = [|{1, 3, 4, 10, 12, 13, 17, 18, 19, 25, 28, 29, 30, 31, 33, 39, 43, 44, 45, 51, 56, 58, 59, 63, 64, 68, 70, 72, 75, 79}, {1, 2, 4, 6, 9, 12, 15, 19, 22, 24, 30, 32, 33, 36, 37, 39, 41, 49, 51, 56, 57, 58, 59, 64, 66, 67, 68, 70, 73, 74, 75, 78}, {6, 9, 10, 11, 12, 14, 15, 20, 22, 24, 25, 30, 31, 33, 34, 35, 36, 38, 40, 42, 44, 46, 47, 48, 49, 51, 54, 56, 58, 59, 60, 63, 64, 66, 68, 70, 71, 74, 78}, {1, 8, 9, 10, 12, 13, 19, 20, 22, 24, 28, 29, 31, 32, 33, 36, 43, 44, 45, 46, 47, 49, 53, 54, 57, 61, 66, 68, 69, 73, 75, 78}|];
InstructorsAvailability = [|0, 1, 1, 1, 0, 0, 1, 1, 1, 1, |0, 0, 0, 1, 1, 0, 1, 1, 1, 1, |1, 1, 1, 1, 0, 1, 1, 1, 0, 0, |0, 1, 1, 1, 1, 1, 1, 1, 1, 1, |0, 1, 1, 1, 1, 0, 1, 1, 1, 0, |1, 1, 1, 1, 1, 0, 1, 1, 0, 1, |1, 1, 1, 1, 1, 1, 1, 0, 0, 1, |0, 0, 1, 1, 1, 1, 1, 1, 1, 0, |1, 1, 1, 0, 0, 1, 1, 0, 0, 0, |1, 0, 1, 1, 1, 1, 0, 1, 1, 1, |0, 0, 0, 1, 1, 1, 1, 1, 1, 1, |1, 1, 1, 1, 1, 1, 1, 1, 1, 1, |1, 1, 1, 1, 1, 1, 1, 1, 1, 1, |0, 1, 1, 1, 1, 1, 1, 1, 1, 1, |0, 1, 1, 1, 0, 0, 0, 0, 1, 0, |0, 1, 1, 1, 0, 0, 0, 0, 1, 0, |0, 0, 1, 1, 1, 1, 1, 1, 0, 1, |0, 1, 1, 1, 0, 0, 0, 0, 0, 1, |0, 1, 1, 0, 0, 1, 0, 1, 1, 1, |0, 0, 0, 1, 1, 1, 1, 1, 1, 0, |0, 1, 1, 0, 1, 1, 1, 0, 0, 1, |0, 1, 1, 1, 0, 1, 1, 1, 0, 1, |1, 1, 1, 1, 1, 1, 0, 1, 0, 1, |1, 1, 1, 1, 0, 0, 0, 0, 1, 1, |0, 1, 1, 1, 0, 0, 1, 1, 1, 1, |1, 1, 0, 1, 1, 1, 0, 1, 0, 0, |1, 1, 1, 1, 1, 1, 1, 1, 1, 1, |1, 1, 1, 1, 1, 1, 0, 1, 1, 1, |0, 0, 1, 1, 1, 1, 1, 0, 1, 1, |1, 1, 1, 0, 1, 1, 0, 1, 0, 1, |0, 1, 1, 1, 1, 1, 0, 0, 1, 1, |1, 1, 1, 1, 1, 1, 1, 0, 1, 1, |0, 1, 1, 1, 1, 1, 1, 1, 1, 1, |1, 1, 1, 0, 1, 1, 1, 1, 1, 1, |1, 1, 1, 1, 0, 1, 1, 1, 1, 1, |1, 0, 0, 1, 1, 1, 1, 1, 1, 1, |0, 0, 1, 0, 0, 1, 1, 1, 1, 1, |1, 1, 0, 1, 0, 0, 1, 0, 0, 1, |0, 1, 1, 1, 0, 0, 1, 0, 1, 1, |0, 1, 1, 1, 1, 1, 1, 1, 0, 1, |0, 1, 1, 1, 1, 0, 1, 1, 1, 1, |0, 0, 1, 0, 0, 1, 1, 0, 1, 0, |1, 0, 0, 0, 0, 1, 1, 1, 1, 1, |0, 0, 0, 1, 1, 1, 1, 1, 0, 0, |0, 0, 0, 1, 1, 1, 1, 1, 1, 1, |1, 1, 0, 1, 0, 1, 1, 1, 1, 1, |0, 0, 1, 1, 1, 1, 1, 1, 1, 1, |0, 1, 1, 1, 1, 1, 1, 1, 1, 0, |1, 1, 1, 1, 1, 1, 1, 1, 1, 1, |1, 1, 1, 1, 1, 1, 1, 0, 0, 1, |0, 0, 0, 0, 0, 0, 1, 1, 1, 1, |0, 0, 1, 1, 1, 1, 1, 0, 1, 1, |1, 1, 1, 0, 1, 1, 1, 1, 1, 1, |0, 0, 1, 1, 1, 1, 1, 1, 1, 1, |0, 1, 1, 0, 1, 1, 1, 0, 1, 1, |0, 1, 1, 1, 1, 1, 1, 1, 0, 0, |0, 1, 1, 1, 1, 1, 1, 0, 1, 1, |1, 1, 1, 1, 1, 1, 0, 1, 1, 1, |0, 1, 0, 1, 1, 1, 1, 1, 1, 1, |0, 1, 1, 1, 1, 1, 1, 1, 1, 0, |0, 1, 1, 0, 1, 1, 0, 1, 1, 0, |1, 1, 0, 0, 1, 1, 1, 1, 0, 1, |1, 0, 1, 0, 0, 0, 1, 1, 1, 1, |1, 1, 1, 1, 1, 1, 1, 1, 1, 1, |1, 1, 1, 1, 1, 1, 1, 1, 1, 0, |1, 1, 0, 1, 1, 1, 1, 1, 1, 1, |0, 1, 0, 0, 0, 0, 1, 1, 1, 1, |0, 0, 1, 1, 1, 0, 0, 0, 0, 0, |1, 1, 0, 1, 1, 1, 0, 1, 1, 0, |1, 0, 1, 0, 0, 1, 1, 1, 1, 0, |1, 1, 1, 1, 1, 1, 1, 1, 1, 0, |1, 1, 1, 1, 1, 1, 1, 1, 1, 1, |1, 1, 1, 1, 1, 1, 1, 1, 1, 1, |0, 0, 0, 1, 1, 1, 1, 1, 1, 1, |0, 0, 0, 1, 1, 1, 1, 1, 1, 1, |1, 0, 1, 1, 1, 1, 1, 1, 1, 1, |0, 1, 0, 1, 1, 1, 1, 1, 1, 1, |1, 1, 1, 1, 1, 1, 1, 0, 1, 1, |0, 1, 1, 0, 0, 1, 1, 1, 1, 0|];
StudentsProgramm = [1, 1, 1, 1, 1, 1, 1, 1, 1, 1];
StudentsDegree = [1, 2, 2, 1, 2, 2, 2, 2, 2, 1];
StudentsSupervisorId = [51, 6, 34, 17, 25, 26, 11, 68, 63, 29];
StudentsCourseIds = [{1, 2, 4, 5, 6, 7, 8}, {1, 7, 8}, {5, 7, 8}, {1, 2, 3, 4, 5, 6, 8}, {2, 7, 8}, {3, 5, 7}, {4, 5, 6}, {4, 6, 7}, {1, 3, 4}, {1, 2, 3, 4, 5, 6, 7}];
StudentsAvailability = [|1, 1, 1, 0, 1, 1, 1, 0, 1, 1, |1, 1, 1, 1, 1, 1, 1, 1, 1, 1, |0, 0, 0, 0, 0, 1, 1, 1, 0, 1, |1, 1, 1, 1, 0, 1, 0, 0, 0, 0, |0, 1, 1, 1, 1, 0, 0, 0, 0, 1, |1, 1, 1, 1, 1, 1, 1, 1, 1, 1, |0, 1, 1, 1, 1, 1, 1, 1, 1, 1, |0, 0, 1, 1, 1, 1, 1, 1, 1, 1, |0, 1, 1, 1, 1, 1, 0, 1, 1, 1, |0, 0, 1, 1, 1, 1, 1, 1, 1, 1|];
TheoryticalMinCard = [0, 0, 0, 0, 0, 0, 0, 0, 0, 0];
CoursesInstructorIds = [{7, 14, 16, 21, 62, 66, 67, 78, 79}, {2, 3, 4, 7, 8, 9, 10, 11, 12, 13, 14, 15, 19, 22, 24, 25, 27, 29, 30, 37, 38, 44, 45, 46, 50, 53, 55, 56, 57, 61, 69, 70, 71, 75, 79}, {2, 3, 4, 5, 9, 10, 12, 13, 16, 18, 19, 20, 21, 23, 24, 25, 26, 28, 30, 31, 33, 35, 36, 40, 42, 43, 44, 47, 48, 49, 50, 51, 54, 56, 57, 60, 64, 65, 67, 68, 71, 72, 75, 76, 77}, {1, 8, 10, 11, 12, 14, 18, 19, 20, 22, 24, 32, 35, 36, 37, 41, 43, 52, 56, 57, 59, 60, 62, 63, 66, 68, 72, 75, 76, 77, 79}, {3, 5, 6, 9, 13, 22, 24, 25, 26, 28, 31, 32, 33, 34, 35, 36, 38, 46, 47, 49, 54, 58, 59, 60, 66, 67, 68, 69, 72, 73, 74, 75, 77, 78}, {20, 23, 30, 36, 46, 50, 57, 70, 71}, {4, 6, 7, 14, 18, 25, 32, 47, 51, 66, 79}, {3, 6, 8, 18, 24, 25, 26, 30, 33, 52, 59, 63, 67, 71, 75}];
RolesDemands = [8, 21, 10, 32];
RolesContinuity = [4, 2, 3];
ExamLen = [1, 2, 2, 1, 2, 2, 2, 2, 2, 1];
LunchTsMinLen = 1;
LunchStarts = [2..7, 15..16];
SupervisorAvailable = 5;
OptimalLunchLenght = [1, 1];
OptimalStartTs = [1, 0];
OptimalFinishTs = [0, 10];
MinimizeRooms = 500;
RolesSoftContinuity = [|1, 2, 3, 4|3, 2, 0, 0|];
SameDegreeInRoom = 20;
Mergeability = 1;
